449
56 16
59 23
11 3
86 94
8 34
38 77
68 17
24 53
21 48
89 95
53 50
60 39
7 25
41 64
15 36
57 10
78 18
54 73
7 88
67 90
9 4
74 28
25 21
69 60
17 45
85 37
9 100
61 31
81 87
8 99
11 76
6 23
65 84
46 93
3 95
58 65
55 69
51 24
16 69
22 62
16 92
35 40
71 54
81 30
78 5
69 65
23 79
72 22
12 14
62 81
60 67
53 58
41 19
59 36
85 5
51 17
59 99
40 96
60 66
67 65
18 64
56 90
83 9
70 70
56 50
66 89
14 27
44 27
6 47
51 49
86 87
79 45
31 30
77 55
5 49
51 61
66 94
33 93
8 66
81 100
63 63
90 53
69 72
67 67
31 55
27 84
79 62
32 11
53 59
83 76
11 25
51 44
44 75
3 36
70 9
74 22
72 43
6 29
2 65
59 25
41 49
61 33
44 77
27 54
47 41
15 93
70 4
19 20
27 32
3 11
